(set-logic QF_S)
(declare-fun var0 () String)
(declare-fun var1 () String)
(declare-fun var2 () String)
(declare-fun var3 () String)
(declare-fun var4 () Int)
(assert (str.in.re var0 re.allchar))
(assert (str.contains var1 var2))
(assert (str.suffixof (str.replace var3 var1 var2) (str.substr var1 158 var4)))
(assert (<= (str.len var0) (str.len var0)))
(check-sat)